p tw 130 300
0 1
0 2
0 61
0 62
0 56
0 70
0 72
0 73
0 63
0 81
0 85
0 88
0 65
0 89
0 53
0 102
0 39
0 111
0 44
0 114
0 71
0 116
0 84
0 117
0 96
0 118
0 123
0 124
1 2
1 22
1 87
3 4
3 5
4 5
4 49
4 96
5 25
5 26
5 28
5 51
5 100
5 101
5 78
5 103
5 97
5 109
5 35
5 115
5 32
5 94
5 86
5 106
6 7
6 8
6 23
6 24
6 43
6 44
6 59
6 71
6 86
6 87
6 102
6 104
6 80
6 98
6 95
6 113
6 16
6 26
6 60
6 121
7 8
7 64
7 110
8 17
8 108
9 10
9 11
9 14
9 60
10 11
10 17
10 84
11 27
11 28
11 31
11 32
11 57
11 58
11 13
11 67
11 76
11 78
11 42
11 85
11 20
11 61
11 46
11 104
11 115
11 128
12 13
12 14
12 17
12 54
13 14
13 67
14 33
14 34
14 55
14 56
14 60
14 79
14 80
14 82
14 90
14 75
14 112
14 31
14 91
14 108
14 124
15 16
15 17
16 17
16 26
17 18
17 19
17 37
17 38
17 41
17 42
17 45
17 46
17 54
17 68
17 69
17 84
17 93
17 94
17 105
17 106
17 30
17 107
17 108
17 33
17 81
17 112
17 122
18 19
18 22
18 74
19 49
19 59
20 21
20 22
20 61
21 22
21 29
21 30
22 35
22 36
22 39
22 40
22 74
22 87
22 98
22 99
22 118
22 119
22 50
22 120
22 48
22 125
22 41
22 126
23 24
23 63
23 64
25 26
25 49
25 50
27 28
27 64
27 83
28 51
29 30
29 75
29 76
29 82
29 83
29 91
29 92
29 77
29 95
29 55
29 125
30 107
31 32
31 91
32 94
33 34
33 81
35 36
35 115
36 49
36 65
37 38
38 64
38 109
39 40
39 111
40 49
40 77
41 42
41 126
42 85
43 44
43 64
43 66
44 114
45 46
46 104
47 48
47 49
48 49
48 125
49 50
49 52
49 53
49 59
49 65
49 77
49 69
49 79
49 96
49 72
49 97
49 54
49 100
49 58
49 66
50 120
52 53
53 102
54 100
55 56
55 125
56 70
57 58
58 66
59 71
60 121
61 62
63 64
63 81
64 66
64 83
64 109
64 110
64 126
64 127
64 119
64 129
65 89
68 69
69 79
71 116
72 73
72 97
75 76
75 112
76 78
77 95
78 103
79 80
80 98
82 83
82 90
84 117
85 88
86 87
86 106
91 92
93 94
95 113
96 118
97 109
98 99
100 101
102 104
105 106
108 124
112 122
115 128
118 119
119 129
123 124
126 127
